p cnf 1111
-21 -343
-22 -346
-23 -349
-24 -352
-25 -355
-26 -358
-27 -361
-28 -364
-29 -367
-30 -370
-31 -373
-32 -376
-33 -379
-34 -382
-35 -385
-36 -388
-37 -391
-38 -394
-39 -397
-40 -400
-41 401
-42 402
-43 403
-44 404
-45 -22
-45 -23
22 23 45
-46 -24
-46 -25
24 25 46
-47 -26
-47 -27
26 27 47
-48 -28
-48 -29
28 29 48
-49 -30
-49 -31
30 31 49
-50 -32
-50 -33
32 33 50
-51 -34
-51 -35
34 35 51
-52 -36
-52 -37
36 37 52
-53 -38
-53 -39
38 39 53
-54 -40
-54 -41
40 41 54
-55 -42
-55 -43
42 43 55
-56 45
-56 46
-45 -46 56
-57 47
-57 48
-47 -48 57
-58 49
-58 50
-49 -50 58
-59 51
-59 52
-51 -52 59
-60 53
-60 54
-53 -54 60
-61 -44
-61 55
44 -55 61
-62 56
-62 57
-56 -57 62
-63 58
-63 59
-58 -59 63
-64 60
-64 61
-60 -61 64
-65 62
-65 63
-62 -63 65
-66 64
-66 65
-64 -65 66
-67 -21
-67 22
21 -22 67
-68 21
-68 -22
-21 22 68
-69 -67
-69 -68
67 68 69
-70 21
-70 22
-21 -22 70
-71 -21
-71 -69
21 69 71
-72 21
-72 69
-21 -69 72
-73 -71
-73 -72
71 72 73
-74 21
-74 -69
-21 69 74
-75 -70
-75 -74
70 74 75
-76 -22
-76 23
22 -23 76
-77 22
-77 -23
-22 23 77
-78 -76
-78 -77
76 77 78
-79 22
-79 23
-22 -23 79
-80 75
-80 -78
-75 78 80
-81 -75
-81 78
75 -78 81
-82 -80
-82 -81
80 81 82
-83 -75
-83 -78
75 78 83
-84 -79
-84 -83
79 83 84
-85 -23
-85 24
23 -24 85
-86 23
-86 -24
-23 24 86
-87 -85
-87 -86
85 86 87
-88 23
-88 24
-23 -24 88
-89 84
-89 -87
-84 87 89
-90 -84
-90 87
84 -87 90
-91 -89
-91 -90
89 90 91
-92 -84
-92 -87
84 87 92
-93 -88
-93 -92
88 92 93
-94 -24
-94 25
24 -25 94
-95 24
-95 -25
-24 25 95
-96 -94
-96 -95
94 95 96
-97 24
-97 25
-24 -25 97
-98 93
-98 -96
-93 96 98
-99 -93
-99 96
93 -96 99
-100 -98
-100 -99
98 99 100
-101 -93
-101 -96
93 96 101
-102 -97
-102 -101
97 101 102
-103 -25
-103 26
25 -26 103
-104 25
-104 -26
-25 26 104
-105 -103
-105 -104
103 104 105
-106 25
-106 26
-25 -26 106
-107 102
-107 -105
-102 105 107
-108 -102
-108 105
102 -105 108
-109 -107
-109 -108
107 108 109
-110 -102
-110 -105
102 105 110
-111 -106
-111 -110
106 110 111
-112 -26
-112 27
26 -27 112
-113 26
-113 -27
-26 27 113
-114 -112
-114 -113
112 113 114
-115 26
-115 27
-26 -27 115
-116 111
-116 -114
-111 114 116
-117 -111
-117 114
111 -114 117
-118 -116
-118 -117
116 117 118
-119 -111
-119 -114
111 114 119
-120 -115
-120 -119
115 119 120
-121 -27
-121 28
27 -28 121
-122 27
-122 -28
-27 28 122
-123 -121
-123 -122
121 122 123
-124 27
-124 28
-27 -28 124
-125 120
-125 -123
-120 123 125
-126 -120
-126 123
120 -123 126
-127 -125
-127 -126
125 126 127
-128 -120
-128 -123
120 123 128
-129 -124
-129 -128
124 128 129
-130 -28
-130 29
28 -29 130
-131 28
-131 -29
-28 29 131
-132 -130
-132 -131
130 131 132
-133 28
-133 29
-28 -29 133
-134 129
-134 -132
-129 132 134
-135 -129
-135 132
129 -132 135
-136 -134
-136 -135
134 135 136
-137 -129
-137 -132
129 132 137
-138 -133
-138 -137
133 137 138
-139 -29
-139 30
29 -30 139
-140 29
-140 -30
-29 30 140
-141 -139
-141 -140
139 140 141
-142 29
-142 30
-29 -30 142
-143 138
-143 -141
-138 141 143
-144 -138
-144 141
138 -141 144
-145 -143
-145 -144
143 144 145
-146 -138
-146 -141
138 141 146
-147 -142
-147 -146
142 146 147
-148 -30
-148 31
30 -31 148
-149 30
-149 -31
-30 31 149
-150 -148
-150 -149
148 149 150
-151 30
-151 31
-30 -31 151
-152 147
-152 -150
-147 150 152
-153 -147
-153 150
147 -150 153
-154 -152
-154 -153
152 153 154
-155 -147
-155 -150
147 150 155
-156 -151
-156 -155
151 155 156
-157 -31
-157 32
31 -32 157
-158 31
-158 -32
-31 32 158
-159 -157
-159 -158
157 158 159
-160 31
-160 32
-31 -32 160
-161 156
-161 -159
-156 159 161
-162 -156
-162 159
156 -159 162
-163 -161
-163 -162
161 162 163
-164 -156
-164 -159
156 159 164
-165 -160
-165 -164
160 164 165
-166 -32
-166 33
32 -33 166
-167 32
-167 -33
-32 33 167
-168 -166
-168 -167
166 167 168
-169 32
-169 33
-32 -33 169
-170 165
-170 -168
-165 168 170
-171 -165
-171 168
165 -168 171
-172 -170
-172 -171
170 171 172
-173 -165
-173 -168
165 168 173
-174 -169
-174 -173
169 173 174
-175 -33
-175 34
33 -34 175
-176 33
-176 -34
-33 34 176
-177 -175
-177 -176
175 176 177
-178 33
-178 34
-33 -34 178
-179 174
-179 -177
-174 177 179
-180 -174
-180 177
174 -177 180
-181 -179
-181 -180
179 180 181
-182 -174
-182 -177
174 177 182
-183 -178
-183 -182
178 182 183
-184 -34
-184 35
34 -35 184
-185 34
-185 -35
-34 35 185
-186 -184
-186 -185
184 185 186
-187 34
-187 35
-34 -35 187
-188 183
-188 -186
-183 186 188
-189 -183
-189 186
183 -186 189
-190 -188
-190 -189
188 189 190
-191 -183
-191 -186
183 186 191
-192 -187
-192 -191
187 191 192
-193 -35
-193 36
35 -36 193
-194 35
-194 -36
-35 36 194
-195 -193
-195 -194
193 194 195
-196 35
-196 36
-35 -36 196
-197 192
-197 -195
-192 195 197
-198 -192
-198 195
192 -195 198
-199 -197
-199 -198
197 198 199
-200 -192
-200 -195
192 195 200
-201 -196
-201 -200
196 200 201
-202 -36
-202 37
36 -37 202
-203 36
-203 -37
-36 37 203
-204 -202
-204 -203
202 203 204
-205 36
-205 37
-36 -37 205
-206 201
-206 -204
-201 204 206
-207 -201
-207 204
201 -204 207
-208 -206
-208 -207
206 207 208
-209 -201
-209 -204
201 204 209
-210 -205
-210 -209
205 209 210
-211 -37
-211 38
37 -38 211
-212 37
-212 -38
-37 38 212
-213 -211
-213 -212
211 212 213
-214 37
-214 38
-37 -38 214
-215 210
-215 -213
-210 213 215
-216 -210
-216 213
210 -213 216
-217 -215
-217 -216
215 216 217
-218 -210
-218 -213
210 213 218
-219 -214
-219 -218
214 218 219
-220 -38
-220 39
38 -39 220
-221 38
-221 -39
-38 39 221
-222 -220
-222 -221
220 221 222
-223 38
-223 39
-38 -39 223
-224 219
-224 -222
-219 222 224
-225 -219
-225 222
219 -222 225
-226 -224
-226 -225
224 225 226
-227 -219
-227 -222
219 222 227
-228 -223
-228 -227
223 227 228
-229 -39
-229 40
39 -40 229
-230 39
-230 -40
-39 40 230
-231 -229
-231 -230
229 230 231
-232 39
-232 40
-39 -40 232
-233 228
-233 -231
-228 231 233
-234 -228
-234 231
228 -231 234
-235 -233
-235 -234
233 234 235
-236 -228
-236 -231
228 231 236
-237 -232
-237 -236
232 236 237
-238 -40
-238 41
40 -41 238
-239 40
-239 -41
-40 41 239
-240 -238
-240 -239
238 239 240
-241 40
-241 41
-40 -41 241
-242 237
-242 -240
-237 240 242
-243 -237
-243 240
237 -240 243
-244 -242
-244 -243
242 243 244
-245 -237
-245 -240
237 240 245
-246 -241
-246 -245
241 245 246
-247 -41
-247 42
41 -42 247
-248 41
-248 -42
-41 42 248
-249 -247
-249 -248
247 248 249
-250 41
-250 42
-41 -42 250
-251 246
-251 -249
-246 249 251
-252 -246
-252 249
246 -249 252
-253 -251
-253 -252
251 252 253
-254 -246
-254 -249
246 249 254
-255 -250
-255 -254
250 254 255
-256 -42
-256 43
42 -43 256
-257 42
-257 -43
-42 43 257
-258 -256
-258 -257
256 257 258
-259 42
-259 43
-42 -43 259
-260 255
-260 -258
-255 258 260
-261 -255
-261 258
255 -258 261
-262 -260
-262 -261
260 261 262
-263 -255
-263 -258
255 258 263
-264 -259
-264 -263
259 263 264
-265 -43
-265 44
43 -44 265
-266 43
-266 -44
-43 44 266
-267 -265
-267 -266
265 266 267
-268 43
-268 44
-43 -44 268
-269 264
-269 -267
-264 267 269
-270 -264
-270 267
264 -267 270
-271 -269
-271 -270
269 270 271
-272 -264
-272 -267
264 267 272
-273 -268
-273 -272
268 272 273
-274 21
-274 -73
-21 73 274
-275 -21
-275 23
21 -23 275
-276 -274
-276 -275
274 275 276
-277 21
-277 -82
-21 82 277
-278 -21
-278 24
21 -24 278
-279 -277
-279 -278
277 278 279
-280 21
-280 -91
-21 91 280
-281 -21
-281 25
21 -25 281
-282 -280
-282 -281
280 281 282
-283 21
-283 -100
-21 100 283
-284 -21
-284 26
21 -26 284
-285 -283
-285 -284
283 284 285
-286 21
-286 -109
-21 109 286
-287 -21
-287 27
21 -27 287
-288 -286
-288 -287
286 287 288
-289 21
-289 -118
-21 118 289
-290 -21
-290 28
21 -28 290
-291 -289
-291 -290
289 290 291
-292 21
-292 -127
-21 127 292
-293 -21
-293 29
21 -29 293
-294 -292
-294 -293
292 293 294
-295 21
-295 -136
-21 136 295
-296 -21
-296 30
21 -30 296
-297 -295
-297 -296
295 296 297
-298 21
-298 -145
-21 145 298
-299 -21
-299 31
21 -31 299
-300 -298
-300 -299
298 299 300
-301 21
-301 -154
-21 154 301
-302 -21
-302 32
21 -32 302
-303 -301
-303 -302
301 302 303
-304 21
-304 -163
-21 163 304
-305 -21
-305 33
21 -33 305
-306 -304
-306 -305
304 305 306
-307 21
-307 -172
-21 172 307
-308 -21
-308 34
21 -34 308
-309 -307
-309 -308
307 308 309
-310 21
-310 -181
-21 181 310
-311 -21
-311 35
21 -35 311
-312 -310
-312 -311
310 311 312
-313 21
-313 -190
-21 190 313
-314 -21
-314 36
21 -36 314
-315 -313
-315 -314
313 314 315
-316 21
-316 -199
-21 199 316
-317 -21
-317 37
21 -37 317
-318 -316
-318 -317
316 317 318
-319 21
-319 -208
-21 208 319
-320 -21
-320 38
21 -38 320
-321 -319
-321 -320
319 320 321
-322 21
-322 -217
-21 217 322
-323 -21
-323 39
21 -39 323
-324 -322
-324 -323
322 323 324
-325 21
-325 -226
-21 226 325
-326 -21
-326 40
21 -40 326
-327 -325
-327 -326
325 326 327
-328 21
-328 -235
-21 235 328
-329 -21
-329 41
21 -41 329
-330 -328
-330 -329
328 329 330
-331 21
-331 -244
-21 244 331
-332 -21
-332 42
21 -42 332
-333 -331
-333 -332
331 332 333
-334 21
-334 -253
-21 253 334
-335 -21
-335 43
21 -43 335
-336 -334
-336 -335
334 335 336
-337 21
-337 -262
-21 262 337
-338 -21
-338 44
21 -44 338
-339 -337
-339 -338
337 338 339
-340 21
-340 -271
-21 271 340
-341 1
-341 66
-1 -66 341
-342 -66
-342 67
66 -67 342
-343 -341
-343 -342
341 342 343
-344 2
-344 66
-2 -66 344
-345 -66
-345 -276
66 276 345
-346 -344
-346 -345
344 345 346
-347 3
-347 66
-3 -66 347
-348 -66
-348 -279
66 279 348
-349 -347
-349 -348
347 348 349
-350 4
-350 66
-4 -66 350
-351 -66
-351 -282
66 282 351
-352 -350
-352 -351
350 351 352
-353 5
-353 66
-5 -66 353
-354 -66
-354 -285
66 285 354
-355 -353
-355 -354
353 354 355
-356 6
-356 66
-6 -66 356
-357 -66
-357 -288
66 288 357
-358 -356
-358 -357
356 357 358
-359 7
-359 66
-7 -66 359
-360 -66
-360 -291
66 291 360
-361 -359
-361 -360
359 360 361
-362 8
-362 66
-8 -66 362
-363 -66
-363 -294
66 294 363
-364 -362
-364 -363
362 363 364
-365 9
-365 66
-9 -66 365
-366 -66
-366 -297
66 297 366
-367 -365
-367 -366
365 366 367
-368 10
-368 66
-10 -66 368
-369 -66
-369 -300
66 300 369
-370 -368
-370 -369
368 369 370
-371 11
-371 66
-11 -66 371
-372 -66
-372 -303
66 303 372
-373 -371
-373 -372
371 372 373
-374 12
-374 66
-12 -66 374
-375 -66
-375 -306
66 306 375
-376 -374
-376 -375
374 375 376
-377 13
-377 66
-13 -66 377
-378 -66
-378 -309
66 309 378
-379 -377
-379 -378
377 378 379
-380 14
-380 66
-14 -66 380
-381 -66
-381 -312
66 312 381
-382 -380
-382 -381
380 381 382
-383 15
-383 66
-15 -66 383
-384 -66
-384 -315
66 315 384
-385 -383
-385 -384
383 384 385
-386 16
-386 66
-16 -66 386
-387 -66
-387 -318
66 318 387
-388 -386
-388 -387
386 387 388
-389 17
-389 66
-17 -66 389
-390 -66
-390 -321
66 321 390
-391 -389
-391 -390
389 390 391
-392 18
-392 66
-18 -66 392
-393 -66
-393 -324
66 324 393
-394 -392
-394 -393
392 393 394
-395 19
-395 66
-19 -66 395
-396 -66
-396 -327
66 327 396
-397 -395
-397 -396
395 396 397
-398 20
-398 66
-20 -66 398
-399 -66
-399 -330
66 330 399
-400 -398
-400 -399
398 399 400
-401 -66
-401 -333
66 333 401
-402 -66
-402 -336
66 336 402
-403 -66
-403 -339
66 339 403
-404 -66
-404 340
66 -340 404
-405 -44
-405 273
44 -273 405
-406 21
-406 -405
-21 405 406
406
